Version identifier: 20.1.0.0 | 2020-11-10 | 9bedb6d68
Tried aggregator 2 times.
MIP Presolve eliminated 732 rows and 442 columns.
MIP Presolve modified 1287 coefficients.
Aggregator did 60 substitutions.
Reduced MIP has 489 rows, 405 columns, and 1530 nonzeros.
Reduced MIP has 99 binaries, 306 generals, 0 SOSs, and 0 indicators.
Presolve time = 0.01 sec. (2.59 ticks)
Found incumbent of value 624.000000 after 0.01 sec. (4.02 ticks)
Probing fixed 15 vars, tightened 144 bounds.
Probing time = 0.00 sec. (0.33 ticks)
Tried aggregator 2 times.
MIP Presolve eliminated 222 rows and 52 columns.
MIP Presolve modified 63 coefficients.
Aggregator did 23 substitutions.
Reduced MIP has 244 rows, 330 columns, and 780 nonzeros.
Reduced MIP has 128 binaries, 202 generals, 0 SOSs, and 0 indicators.
Presolve time = 0.00 sec. (1.04 ticks)
Probing time = 0.00 sec. (0.07 ticks)
Tried aggregator 1 time.
Detecting symmetries...
MIP Presolve modified 84 coefficients.
Reduced MIP has 244 rows, 330 columns, and 780 nonzeros.
Reduced MIP has 128 binaries, 202 generals, 0 SOSs, and 0 indicators.
Presolve time = 0.00 sec. (0.60 ticks)
Probing time = 0.00 sec. (0.07 ticks)
Clique table members: 16.
MIP emphasis: balance optimality and feasibility.
MIP search method: dynamic search.
Parallel mode: deterministic, using up to 24 threads.
Root relaxation solution time = 0.00 sec. (0.81 ticks)

        Nodes                                         Cuts/
   Node  Left     Objective  IInf  Best Integer    Best Bound    ItCnt     Gap

*     0+    0                          624.0000        0.0000           100.00%
      0     0        1.0000    27      624.0000        1.0000      113   99.84%
      0     0        4.6129    56      624.0000      Cuts: 51      190   99.26%
*     0+    0                           13.0000        4.6129            64.52%
      0     0        5.7667   120       13.0000      Cuts: 41      270   55.64%
*     0+    0                           11.0000        5.7667            47.58%
      0     0        5.9463    89       11.0000      Cuts: 50      308   45.94%
      0     0        6.0333   108       11.0000      Cuts: 29      381   45.15%
      0     0        6.0667    98       11.0000      Cuts: 34      401   44.85%
*     0+    0                            9.0000        6.0667            32.59%
      0     0        6.2889    90        9.0000      Cuts: 39      457   30.12%
      0     0        6.4132   143        9.0000      Cuts: 47      514   28.74%
      0     0        6.4331   130        9.0000      Cuts: 32      539   28.52%
      0     0        6.5797   142        9.0000      Cuts: 24      606   26.89%
      0     0        6.5809   174        9.0000      Cuts: 36      659   26.88%
      0     0        6.5892   151        9.0000      Cuts: 46      692   26.79%
      0     0        6.5892   156        9.0000  ZeroHalf: 22      714   26.79%
      0     0        6.5892   102        9.0000      Cuts: 10      718   26.79%
      0     0        6.5892   108        9.0000      Cuts: 36      746   26.79%
*     0+    0                            8.0000        6.5892            17.63%
      0     0        cutoff              8.0000        8.0000      746    0.00%
Elapsed time = 0.36 sec. (46.31 ticks, tree = 0.01 MB, solutions = 5)

Cover cuts applied:  1
Implied bound cuts applied:  8
Mixed integer rounding cuts applied:  5
Zero-half cuts applied:  18
Gomory fractional cuts applied:  4

Root node processing (before b&c):
  Real time             =    0.36 sec. (46.36 ticks)
Parallel b&c, 24 threads:
  Real time             =    0.00 sec. (0.00 ticks)
  Sync time (average)   =    0.00 sec.
  Wait time (average)   =    0.00 sec.
                          ------------
Total (root+branch&cut) =    0.36 sec. (46.36 ticks)

Solution status = Optimal
Solution LB = 8
Solution UB = 8
Runtime = 0.361093 seconds
	Command being timed: "/home/min/git_repos/CS598MEBProject/CNT-ILP/build/cnt -s 2 ./output/k6_n15/simC_c1_k6_n15_u1_s3_del04.input-right.cnp"
	User time (seconds): 5.94
	System time (seconds): 0.03
	Percent of CPU this job got: 1600%
	Elapsed (wall clock) time (h:mm:ss or m:ss): 0:00.37
	Average shared text size (kbytes): 0
	Average unshared data size (kbytes): 0
	Average stack size (kbytes): 0
	Average total size (kbytes): 0
	Maximum resident set size (kbytes): 44760
	Average resident set size (kbytes): 0
	Major (requiring I/O) page faults: 0
	Minor (reclaiming a frame) page faults: 8148
	Voluntary context switches: 1364
	Involuntary context switches: 943
	Swaps: 0
	File system inputs: 0
	File system outputs: 16
	Socket messages sent: 0
	Socket messages received: 0
	Signals delivered: 0
	Page size (bytes): 4096
	Exit status: 0
